letting initialStacks = [14, 31, 3, 26, 41, 1, 21, 6, 2, 4, 49, 18, 9, 35, 8, 43, 25, 48, 47, 38, 22, 19, 51, 29, 23, 16, 44, 7, 32, 12, 24, 36, 33, 45, 20, 27, 28, 11, 39, 17, 15, 34, 10, 40, 30, 5, 46, 42, 37, 13, 50]
